62 79 80 81 59 60 61 63 64 76 77 75 74 73 119 118 120 121 117 122 123 71 72 65 66 67 68 70 69 124 125 126 127 128 116 115 106 105 104 103 547 546 545 544 543 541 542 107 108 109 110 111 114 112 113 131 130 129 132 133 134 135 136 137 138 139 140 141 151 150 149 152 148 147 142 143 144 146 145 158 157 159 156 155 153 154 160 161 162 168 163 167 166 164 165 201 200 199 198 202 204 203 208 207 206 205 197 196 195 194 209 210 211 212 213 214 215 216 217 223 224 222 221 220 218 219 193 184 185 183 182 179 181 180 169 171 170 172 173 174 175 176 177 178 540 539 537 538 187 188 186 227 189 190 192 191 226 225 228 229 230 231 533 532 531 530 489 488 534 536 535 487 486 485 484 483 481 482 493 492 491 490 529 528 527 512 513 511 510 509 237 236 235 234 233 232 238 239 240 243 244 245 246 247 242 241 248 249 250 251 252 254 253 255 256 257 300 258 259 260 261 262 263 264 266 265 299 298 297 296 295 294 293 270 269 268 267 271 272 273 274 275 292 291 290 289 288 276 277 278 279 282 281 280 287 286 285 284 283 334 335 336 337 338 339 333 332 331 330 340 341 343 344 345 346 364 363 361 362 347 348 349 350 351 415 416 414 413 417 419 418 410 411 412 356 355 353 352 354 357 358 359 360 401 402 403 400 404 405 406 399 407 408 409 384 383 385 387 386 382 425 424 423 422 421 420 426 427 428 429 431 430 432 433 434 435 437 438 436 445 444 443 442 446 447 448 449 450 441 440 439 454 455 456 457 458 459 460 463 464 465 466 467 468 469 470 496 497 519 518 520 517 503 502 498 501 500 499 462 461 452 453 451 311 312 313 316 314 315 374 373 372 371 396 395 375 376 377 378 379 380 381 389 388 390 392 391 393 394 397 398 370 369 368 367 365 342 366 329 328 327 326 325 324 323 322 321 320 319 317 318 305 306 304 303 301 302 508 507 506 307 308 309 310 505 504 516 515 514 522 521 523 526 525 524 494 495 471 472 473 474 475 476 480 479 477 478 548 549 560 561 562 563 564 565 566 567 569 570 571 572 573 0 1 2 3 4 5 6 7 9 10 8 17 18 19 568 20 14 15 16 11 13 12 23 22 21 24 25 26 27 28 29 31 30 32 33 34 35 36 37 38 40 41 39 42 43 44 45 555 554 553 99 100 552 556 557 558 559 550 551 101 102 98 96 95 97 94 93 90 92 91 46 47 48 49 55 56 58 57 82 83 53 54 52 50 51 84 85 86 87 89 88 78